Cu1 P6 H2 Pb9 O26
1.0
   4.96522051   -8.60001420    0.00000000
   4.96522051    8.60001420    0.00000000
   0.00000000    0.00000000    7.45150386
Cu P H Pb O
1 6 2 9 26
direct
   0.00000000    0.00000000    0.51471821 Cu
   0.35740003    0.06457112    0.25278803 P
   0.93542888    0.29282891    0.25278803 P
   0.70717109    0.64259997    0.25278803 P
   0.96618135    0.70584384    0.72525790 P
   0.73966249    0.03381865    0.72525790 P
   0.29415616    0.26033751    0.72525790 P
   0.33333333    0.66666667    0.45703245 H
   0.33333333    0.66666667    0.94707307 H
   0.58203989    0.91424538    0.25996460 Pb
   0.33220548    0.41796011    0.25996460 Pb
   0.08575462    0.66779452    0.25996460 Pb
   0.66666667    0.33333333    0.50327427 Pb
   0.58897054    0.66923274    0.74628080 Pb
   0.33076726    0.91973780    0.74628080 Pb
   0.08026220    0.41102946    0.74628080 Pb
   0.66666667    0.33333333    0.00162629 Pb
   0.00000000    0.00000000    0.02594978 Pb
   0.40229610    0.00774140    0.07952447 O
   0.99225860    0.39455469    0.07952447 O
   0.60544531    0.59770390    0.07952447 O
   0.75223600    0.20291479    0.25173875 O
   0.45067879    0.24776400    0.25173875 O
   0.79708521    0.54932121    0.25173875 O
   0.82198205    0.82043938    0.26610050 O
   0.17956062    0.00154266    0.26610050 O
   0.99845734    0.17801795    0.26610050 O
   0.33333333    0.66666667    0.32593587 O
   0.41968964    0.01140822    0.41487921 O
   0.98859178    0.40828142    0.41487921 O
   0.59171858    0.58031036    0.41487921 O
   0.08974970    0.71895369    0.58496139 O
   0.62920399    0.91025030    0.58496139 O
   0.28104631    0.37079601    0.58496139 O
   0.88747483    0.79989457    0.65880982 O
   0.20010543    0.08758027    0.65880982 O
   0.91241973    0.11252517    0.65880982 O
   0.69712935    0.16321167    0.75125681 O
   0.46608233    0.30287065    0.75125681 O
   0.83678833    0.53391767    0.75125681 O
   0.33333333    0.66666667    0.81597908 O
   0.05818552    0.77819797    0.90196945 O
   0.72001245    0.94181448    0.90196945 O
   0.22180203    0.27998755    0.90196945 O
