Cu1 P6 H2 Pb9 O26
1.0
   7.50581082    0.00000000    0.00000000
   0.02408026    9.90575725    0.00000000
   0.03489743    4.86403345    8.72310584
Cu P H Pb O
1 6 2 9 26
direct
   0.65904685    0.29808954    0.94654759 Cu
   0.76837101    0.96429825    0.40605535 P
   0.77066981    0.40217466    0.61375240 P
   0.75653249    0.61193743    0.97312497 P
   0.27175951    0.37594029    0.02909015 P
   0.26297929    0.59234701    0.37143191 P
   0.26307891    0.01862916    0.59665093 P
   0.64681435    0.04147920    0.11994099 H
   0.97162498    0.04194462    0.99910160 H
   0.74511734    0.74295756    0.24672709 Pb
   0.73407899    0.99104038    0.75099698 Pb
   0.51572398    0.32177600    0.32909905 Pb
   0.50171250    0.66350123    0.65321592 Pb
   0.22325859    0.75328419    0.00423910 Pb
   0.22222937    0.99968075    0.23115723 Pb
   0.22501656    0.23303616    0.75519802 Pb
   0.01466519    0.65333939    0.67086589 Pb
   0.01142016    0.32310255    0.32519630 Pb
   0.94343858    0.90654529    0.36535605 O
   0.94914629    0.36960799    0.70215892 O
   0.93709633    0.70085849    0.91426131 O
   0.75601122    0.58337230    0.51040329 O
   0.75253883    0.87874829    0.58678641 O
   0.73186365    0.51052320    0.89251507 O
   0.75776522    0.51079824    0.15044165 O
   0.76730815    0.14050667    0.34336567 O
   0.76189715    0.32084074    0.51520988 O
   0.69333971    0.08650817    0.01472268 O
   0.60921559    0.90891469    0.34488377 O
   0.61098033    0.35430537    0.72751905 O
   0.60521521    0.73545360    0.91928177 O
   0.44709087    0.27683819    0.08094226 O
   0.42921593    0.65723144    0.26412086 O
   0.43264225    0.06583162    0.65483959 O
   0.26921556    0.47783020    0.10949672 O
   0.26564717    0.10618465    0.41715675 O
   0.26812473    0.41216137    0.45973025 O
   0.25525495    0.65608813    0.48635901 O
   0.25720535    0.84076167    0.66149584 O
   0.26352698    0.47649155    0.85206359 O
   0.09586656    0.01045654    0.99563699 O
   0.11148090    0.26234488    0.09501910 O
   0.09542388    0.64640139    0.26372756 O
   0.09720448    0.07583697    0.65011452 O
