P6 Pb10 O25
1.0
   5.01604003   -8.68803618    0.00000000
   5.01604003    8.68803618    0.00000000
   0.00000000    0.00000000    7.49249688
P Pb O
6 10 25
direct
   0.95705474    0.26126602    0.24727962 P
   0.70030541    0.06185280    0.74723451 P
   0.73873398    0.69578872    0.24727962 P
   0.93814720    0.63845261    0.74723451 P
   0.30421128    0.04294526    0.24727962 P
   0.36154739    0.29969459    0.74723451 P
   0.32934646    0.43773444    0.24685392 Pb
   0.33871991    0.93123401    0.74705591 Pb
   0.56226556    0.89161202    0.24685392 Pb
   0.06876599    0.40748590    0.74705591 Pb
   0.10838798    0.67065354    0.24685392 Pb
   0.59251410    0.66128009    0.74705591 Pb
   0.00000000    0.00000000    0.00198590 Pb
   0.66666667    0.33333333    0.00718573 Pb
   0.66666667    0.33333333    0.48703496 Pb
   0.00000000    0.00000000    0.49275074 Pb
   0.83364885    0.31198282    0.24714112 O
   0.80226164    0.98647945    0.74733521 O
   0.68801718    0.52166603    0.24714112 O
   0.01352055    0.81578220    0.74733521 O
   0.47833397    0.16635115    0.24714112 O
   0.18421780    0.19773836    0.74733521 O
   0.06294997    0.32339228    0.07901498 O
   0.59322290    0.01695199    0.91412262 O
   0.67660772    0.73955769    0.07901498 O
   0.98304801    0.57627091    0.91412262 O
   0.26044231    0.93705003    0.07901498 O
   0.42372909    0.40677710    0.91412262 O
   0.59299314    0.01654925    0.58053684 O
   0.06307817    0.32381752    0.41539125 O
   0.98345075    0.57644388    0.58053684 O
   0.67618248    0.73926065    0.41539125 O
   0.42355612    0.40700686    0.58053684 O
   0.26073935    0.93692183    0.41539125 O
   0.87807157    0.08139705    0.24753248 O
   0.80558638    0.24339914    0.74695694 O
   0.91860295    0.79667452    0.24753248 O
   0.75660086    0.56218724    0.74695694 O
   0.20332548    0.12192843    0.24753248 O
   0.43781276    0.19441362    0.74695694 O
   0.33333333    0.66666667    0.24587635 O
