Cu1 P6 Pb9 O25
1.0
   7.50798420    0.00000000    0.00000000
   0.22280048    9.96553246    0.00000000
   0.13745367    4.92572424    8.83324879
Cu P Pb O
1 6 9 25
direct
   0.81994999    0.05629329    0.70539363 Cu
   0.25431177    0.36648846    0.92279241 P
   0.21559468    0.93202596    0.72076774 P
   0.26121097    0.71473324    0.36007738 P
   0.77514776    0.30408310    0.72249128 P
   0.74155579    0.71555779    0.96497281 P
   0.74804822    0.96464828    0.30434720 P
   0.49448888    0.66304438    0.65739948 Pb
   0.01665453    0.99049666    0.02953783 Pb
   0.49284643    0.00977283    0.98337929 Pb
   0.99683666    0.68424813    0.66129347 Pb
   0.25996016    0.56864065    0.09044899 Pb
   0.27124018    0.11720023    0.31893183 Pb
   0.27506138    0.33740017    0.54126853 Pb
   0.75595573    0.60252950    0.32134480 Pb
   0.75798916    0.33635098    0.06910670 Pb
   0.42239221    0.40606776    0.98683553 O
   0.32070638    0.04783781    0.58025750 O
   0.43337299    0.61011874    0.40489816 O
   0.94767611    0.24554982    0.67387957 O
   0.91465600    0.70765454    0.05149348 O
   0.92092476    0.06061915    0.24047666 O
   0.62629383    0.21411950    0.68994611 O
   0.59313943    0.64027647    0.08848234 O
   0.58816524    0.08135699    0.25318405 O
   0.08731239    0.41401052    0.98521396 O
   0.01165545    0.94040003    0.67991686 O
   0.09701519    0.61056119    0.39499644 O
   0.25142804    0.19105374    0.97601098 O
   0.24235043    0.96741698    0.85236407 O
   0.26599331    0.83879249    0.18868364 O
   0.75325936    0.47908697    0.63568917 O
   0.76058906    0.63040831    0.87095955 O
   0.75197057    0.85357419    0.47585688 O
   0.25885237    0.46301718    0.74645275 O
   0.27104485    0.76268092    0.76932459 O
   0.25490875    0.79499690    0.46050149 O
   0.77480332    0.24134292    0.89798337 O
   0.68100197    0.88646010    0.85661155 O
   0.73209474    0.86718631    0.21818416 O
   0.26732001    0.34856333    0.31491058 O
