Cu1 P6 Pb9 O25
1.0
   4.96262277   -8.59551477    0.00000000
   4.96262277    8.59551477    0.00000000
   0.00000000    0.00000000    7.44829583
Cu P Pb O
1 6 9 25
direct
   0.00000000    0.00000000    0.49783306 Cu
   0.35591693    0.07055070    0.73719168 P
   0.92944930    0.28536623    0.73719168 P
   0.71463377    0.64408307    0.73719168 P
   0.29569977    0.26631841    0.26152436 P
   0.73368159    0.02938135    0.26152436 P
   0.97061865    0.70430023    0.26152436 P
   0.66666667    0.33333333    0.49156609 Pb
   0.00000000    0.00000000    0.96448222 Pb
   0.66666667    0.33333333    0.98204622 Pb
   0.56312216    0.89581934    0.73591099 Pb
   0.10418066    0.66730283    0.73591099 Pb
   0.33269717    0.43687784    0.73591099 Pb
   0.05583205    0.38435320    0.26018980 Pb
   0.61564680    0.67147884    0.26018980 Pb
   0.32852116    0.94416795    0.26018980 Pb
   0.41050585    0.00619371    0.57686681 O
   0.99380629    0.40431214    0.57686681 O
   0.59568786    0.58949415    0.57686681 O
   0.22130696    0.28050638    0.08412547 O
   0.71949362    0.94080059    0.08412547 O
   0.05919941    0.77869304    0.08412547 O
   0.27818500    0.37590286    0.39916664 O
   0.62409714    0.90228213    0.39916664 O
   0.09771787    0.72181500    0.39916664 O
   0.40033568    0.01703633    0.91274002 O
   0.98296367    0.38329936    0.91274002 O
   0.61670064    0.59966432    0.91274002 O
   0.17867907    0.01065432    0.72297992 O
   0.98934568    0.16802475    0.72297992 O
   0.83197525    0.82132093    0.72297992 O
   0.46821495    0.31025810    0.23819683 O
   0.68974190    0.15795685    0.23819683 O
   0.84204315    0.53178505    0.23819683 O
   0.45463240    0.25275748    0.72893895 O
   0.74724252    0.20187492    0.72893895 O
   0.79812508    0.54536760    0.72893895 O
   0.20339766    0.09253226    0.33071013 O
   0.90746774    0.11086540    0.33071013 O
   0.88913460    0.79660234    0.33071013 O
   0.33333333    0.66666667    0.73266850 O
