Cu1 P6 Pb9 O25
1.0
   7.52593717    0.00000000    0.00000000
  -0.08136811    9.94366501    0.00000000
  -0.11543690   -4.95984982    8.65897637
Cu P Pb O
1 6 9 25
direct
   0.59483751    0.36402058    0.50875519 Cu
   0.75444198    0.71200031    0.63885291 P
   0.75161996    0.35971889    0.06869827 P
   0.75422777    0.92590017    0.28702237 P
   0.25536560    0.96487460    0.68983105 P
   0.26457522    0.30774911    0.27035171 P
   0.25186128    0.72455715    0.03503973 P
   0.50637635    0.66079179    0.32955411 Pb
   0.99296672    0.01768443    0.01293106 Pb
   0.51610526    0.99056345    0.99795750 Pb
   0.99357991    0.65200905    0.33339623 Pb
   0.73892942    0.56514584    0.90195682 Pb
   0.72932503    0.10368176    0.65264231 Pb
   0.25424551    0.32973945    0.92064517 Pb
   0.22800982    0.06881127    0.40531312 Pb
   0.22526151    0.59866517    0.67177370 Pb
   0.59858611    0.58892486    0.58466294 O
   0.58701888    0.40435929    0.00126856 O
   0.58847520    0.98795706    0.39257496 O
   0.08986248    0.06975583    0.75453481 O
   0.10372168    0.22733541    0.29940863 O
   0.08996170    0.67046338    0.91928735 O
   0.42110323    0.07714839    0.74507184 O
   0.43654041    0.26559403    0.32981688 O
   0.42253948    0.68979532    0.93658345 O
   0.93739859    0.63274663    0.59048633 O
   0.92201121    0.40776184    0.01304801 O
   0.92265223    0.98648475    0.39532413 O
   0.74873463    0.82207833    0.81646467 O
   0.75016907    0.18165926    0.00799018 O
   0.75768769    0.97566230    0.16239603 O
   0.24829907    0.86105719    0.51183597 O
   0.24528445    0.48573117    0.34857607 O
   0.25097871    0.64514456    0.13461616 O
   0.72402320    0.80294333    0.54987649 O
   0.74602028    0.45457179    0.24805560 O
   0.74841608    0.74464024    0.20689149 O
   0.26933162    0.86086659    0.76815668 O
   0.27696043    0.23472791    0.08989566 O
   0.24160390    0.90599118    0.14170802 O
   0.69511179    0.33735294    0.66008114 O
