Cu1 P6 Pb9 O25
1.0
   4.96251310   -8.59532483    0.00000000
   4.96251310    8.59532483    0.00000000
   0.00000000    0.00000000    7.44841390
Cu P Pb O
1 6 9 25
direct
   0.00000000    0.00000000    0.99645947 Cu
   0.35591365    0.07055357    0.75717102 P
   0.92944643    0.28536008    0.75717102 P
   0.71463992    0.64408635    0.75717102 P
   0.29568460    0.26633188    0.23282524 P
   0.73366812    0.02935272    0.23282524 P
   0.97064728    0.70431540    0.23282524 P
   0.66666667    0.33333333    0.51231715 Pb
   0.00000000    0.00000000    0.52979689 Pb
   0.66666667    0.33333333    0.00279886 Pb
   0.56313710    0.89580449    0.75844565 Pb
   0.10419551    0.66733261    0.75844565 Pb
   0.33266739    0.43686290    0.75844565 Pb
   0.05579426    0.38435241    0.23417112 Pb
   0.61564759    0.67144185    0.23417112 Pb
   0.32855815    0.94420574    0.23417112 Pb
   0.40038090    0.01709588    0.58161210 O
   0.98290412    0.38328501    0.58161210 O
   0.61671499    0.59961910    0.58161210 O
   0.27817567    0.37592228    0.09519034 O
   0.62407772    0.90225339    0.09519034 O
   0.09774661    0.72182433    0.09519034 O
   0.22128462    0.28051370    0.41022365 O
   0.71948630    0.94077092    0.41022365 O
   0.05922908    0.77871538    0.41022365 O
   0.41046317    0.00614937    0.91748077 O
   0.99385063    0.40431381    0.91748077 O
   0.59568619    0.58953683    0.91748077 O
   0.17866672    0.01064800    0.77134234 O
   0.98935200    0.16801872    0.77134234 O
   0.83198128    0.82133328    0.77134234 O
   0.46820515    0.31028226    0.25617534 O
   0.68971774    0.15792288    0.25617534 O
   0.84207712    0.53179485    0.25617534 O
   0.45462223    0.25276341    0.76548680 O
   0.74723659    0.20185882    0.76548680 O
   0.79814118    0.54537777    0.76548680 O
   0.20340527    0.09254664    0.16362755 O
   0.90745336    0.11085863    0.16362755 O
   0.88914137    0.79659473    0.16362755 O
   0.33333333    0.66666667    0.76159278 O
