Ag2 P6 Pb8 O24
1.0
   4.97913780   -8.62411964    0.00000000
   4.97913780    8.62411964    0.00000000
   0.00000000    0.00000000    7.34842307
Ag P Pb O
2 6 8 24
direct
   0.66666667    0.33333333    0.99500944 Ag
   0.33333333    0.66666667    0.00499056 Ag
   0.39284378    0.01878133    0.24662821 P
   0.98121867    0.37406245    0.24662821 P
   0.62593755    0.60715622    0.24662821 P
   0.37406245    0.39284378    0.75337179 P
   0.01878133    0.62593755    0.75337179 P
   0.60715622    0.98121867    0.75337179 P
   0.26291733    0.26746962    0.23679999 Pb
   0.00455229    0.73708267    0.23679999 Pb
   0.73253038    0.99544771    0.23679999 Pb
   0.66666667    0.33333333    0.50307140 Pb
   0.33333333    0.66666667    0.49692860 Pb
   0.26746962    0.00455229    0.76320001 Pb
   0.99544771    0.26291733    0.76320001 Pb
   0.73708267    0.73253038    0.76320001 Pb
   0.31267080    0.06228958    0.09267308 O
   0.93771042    0.25038121    0.09267308 O
   0.74961879    0.68732920    0.09267308 O
   0.57134529    0.09721196    0.20618647 O
   0.52586667    0.42865471    0.20618647 O
   0.90278804    0.47413333    0.20618647 O
   0.16041895    0.47890036    0.25690354 O
   0.52109964    0.68151859    0.25690354 O
   0.31848141    0.83958105    0.25690354 O
   0.37173642    0.08965894    0.42569962 O
   0.91034106    0.28207748    0.42569962 O
   0.71792252    0.62826358    0.42569962 O
   0.28207748    0.37173642    0.57430038 O
   0.08965894    0.71792252    0.57430038 O
   0.62826358    0.91034106    0.57430038 O
   0.68151859    0.16041895    0.74309646 O
   0.47890036    0.31848141    0.74309646 O
   0.83958105    0.52109964    0.74309646 O
   0.09721196    0.52586667    0.79381353 O
   0.47413333    0.57134529    0.79381353 O
   0.42865471    0.90278804    0.79381353 O
   0.25038121    0.31267080    0.90732692 O
   0.06228958    0.74961879    0.90732692 O
   0.68732920    0.93771042    0.90732692 O
