P6 H2 Pb10 O26
1.0
   5.03621276   -8.72297637    0.00000000
   5.03621276    8.72297637    0.00000000
   0.00000000    0.00000000    7.49066628
P H Pb O
6 2 10 26
direct
   0.03397212    0.40164022    0.24395567 P
   0.59835978    0.63233190    0.24395567 P
   0.36766810    0.96602788    0.24395567 P
   0.63233190    0.03397212    0.74395567 P
   0.40164022    0.36766810    0.74395567 P
   0.96602788    0.59835978    0.74395567 P
   0.00000000    0.00000000    0.43343400 H
   0.00000000    0.00000000    0.93343400 H
   0.74662684    0.99741098    0.25271679 Pb
   0.25078414    0.25337316    0.25271679 Pb
   0.00258902    0.74921586    0.25271679 Pb
   0.66666667    0.33333333    0.49002680 Pb
   0.33333333    0.66666667    0.49453948 Pb
   0.99741098    0.25078414    0.75271679 Pb
   0.74921586    0.74662684    0.75271679 Pb
   0.25337316    0.00258902    0.75271679 Pb
   0.33333333    0.66666667    0.99002680 Pb
   0.66666667    0.33333333    0.99453948 Pb
   0.08236487    0.34322184    0.07619999 O
   0.65677816    0.73914303    0.07619999 O
   0.26085697    0.91763513    0.07619999 O
   0.41770462    0.54211342    0.24016012 O
   0.12440880    0.58229538    0.24016012 O
   0.45788658    0.87559120    0.24016012 O
   0.48167420    0.14082036    0.24749874 O
   0.85917964    0.34085384    0.24749874 O
   0.65914616    0.51832580    0.24749874 O
   0.00000000    0.00000000    0.30292059 O
   0.09098786    0.35152267    0.41119244 O
   0.64847733    0.73946518    0.41119244 O
   0.26053482    0.90901214    0.41119244 O
   0.73914303    0.08236487    0.57619999 O
   0.34322184    0.26085697    0.57619999 O
   0.91763513    0.65677816    0.57619999 O
   0.54211342    0.12440880    0.74016012 O
   0.87559120    0.41770462    0.74016012 O
   0.58229538    0.45788658    0.74016012 O
   0.34085384    0.48167420    0.74749874 O
   0.14082036    0.65914616    0.74749874 O
   0.51832580    0.85917964    0.74749874 O
   0.00000000    0.00000000    0.80292059 O
   0.73946518    0.09098786    0.91119244 O
   0.35152267    0.26053482    0.91119244 O
   0.90901214    0.64847733    0.91119244 O
