Cu1 P6 Pb9 O25
1.0
   4.97711812   -8.62062146    0.00000000
   4.97711812    8.62062146    0.00000000
   0.00000000    0.00000000    7.40736977
Cu P Pb O
1 6 9 25
direct
   0.00000000    0.00000000    0.58387302 Cu
   0.69485164    0.73848754    0.73509033 P
   0.26151246    0.95636411    0.73509033 P
   0.04363589    0.30514836    0.73509033 P
   0.64558986    0.94238290    0.24833843 P
   0.05761710    0.70320696    0.24833843 P
   0.29679304    0.35441014    0.24833843 P
   0.33333333    0.66666667    0.99603442 Pb
   0.33333333    0.66666667    0.50932958 Pb
   0.00000000    0.00000000    0.02492830 Pb
   0.89582835    0.56560965    0.74356567 Pb
   0.43439035    0.33021870    0.74356567 Pb
   0.66978130    0.10417165    0.74356567 Pb
   0.40488620    0.07464335    0.25261902 Pb
   0.92535665    0.33024285    0.25261902 Pb
   0.66975715    0.59511380    0.25261902 Pb
   0.71851355    0.63961379    0.58757423 O
   0.36038621    0.07889976    0.58757423 O
   0.92110024    0.28148645    0.58757423 O
   0.57543591    0.97032750    0.07354855 O
   0.02967250    0.60510840    0.07354855 O
   0.39489160    0.42456409    0.07354855 O
   0.58828797    0.00312119    0.40835785 O
   0.99687881    0.58516678    0.40835785 O
   0.41483322    0.41171203    0.40835785 O
   0.75758701    0.71079333    0.91560688 O
   0.28920667    0.04679368    0.91560688 O
   0.95320632    0.24241299    0.91560688 O
   0.51943632    0.68682830    0.75003313 O
   0.31317170    0.83260802    0.75003313 O
   0.16739198    0.48056368    0.75003313 O
   0.82461566    0.02182824    0.24460407 O
   0.97817176    0.80278742    0.24460407 O
   0.19721258    0.17538434    0.24460407 O
   0.78799059    0.91417572    0.68323782 O
   0.08582428    0.87381487    0.68323782 O
   0.12618513    0.21200941    0.68323782 O
   0.57130557    0.76095957    0.27077819 O
   0.23904043    0.81034600    0.27077819 O
   0.18965400    0.42869443    0.27077819 O
   0.66666667    0.33333333    0.77999322 O
