Cu2 P6 Pb8 O24
1.0
   4.92237131   -8.52579721    0.00000000
   4.92237131    8.52579721    0.00000000
   0.00000000    0.00000000    7.31864772
Cu P Pb O
2 6 8 24
direct
   0.66666667    0.33333333    0.49455571 Cu
   0.33333333    0.66666667    0.50544429 Cu
   0.37602093    0.39733848    0.26096074 P
   0.02131755    0.62397907    0.26096074 P
   0.60266152    0.97868245    0.26096074 P
   0.39733848    0.02131755    0.73903926 P
   0.97868245    0.37602093    0.73903926 P
   0.62397907    0.60266152    0.73903926 P
   0.33333333    0.66666667    0.99295620 Pb
   0.27225227    0.00544234    0.26795252 Pb
   0.99455766    0.26680993    0.26795252 Pb
   0.73319007    0.72774773    0.26795252 Pb
   0.26680993    0.27225227    0.73204748 Pb
   0.00544234    0.73319007    0.73204748 Pb
   0.72774773    0.99455766    0.73204748 Pb
   0.66666667    0.33333333    0.00704380 Pb
   0.29194005    0.37899258    0.07530787 O
   0.08705253    0.70805995    0.07530787 O
   0.62100742    0.91294747    0.07530787 O
   0.66734628    0.15846852    0.25700931 O
   0.49112224    0.33265372    0.25700931 O
   0.84153148    0.50887776    0.25700931 O
   0.11119060    0.53551486    0.31636724 O
   0.46448514    0.57567573    0.31636724 O
   0.42432427    0.88880940    0.31636724 O
   0.24328679    0.30208359    0.40444401 O
   0.05879680    0.75671321    0.40444401 O
   0.69791641    0.94120320    0.40444401 O
   0.30208359    0.05879680    0.59555599 O
   0.94120320    0.24328679    0.59555599 O
   0.75671321    0.69791641    0.59555599 O
   0.57567573    0.11119060    0.68363276 O
   0.53551486    0.42432427    0.68363276 O
   0.88880940    0.46448514    0.68363276 O
   0.15846852    0.49112224    0.74299069 O
   0.50887776    0.66734628    0.74299069 O
   0.33265372    0.84153148    0.74299069 O
   0.37899258    0.08705253    0.92469213 O
   0.91294747    0.29194005    0.92469213 O
   0.70805995    0.62100742    0.92469213 O
