Cu1 P6 Pb9 O25
1.0
   4.93244987   -8.54325377    0.00000000
   4.93244987    8.54325377    0.00000000
   0.00000000    0.00000000    7.39569340
Cu P Pb O
1 6 9 25
direct
   0.00000000    0.00000000    0.97677637 Cu
   0.69952280    0.74145430    0.76534620 P
   0.25854570    0.95806850    0.76534620 P
   0.04193150    0.30047720    0.76534620 P
   0.65167163    0.94151099    0.23989305 P
   0.05848901    0.71016064    0.23989305 P
   0.28983936    0.34832837    0.23989305 P
   0.00000000    0.00000000    0.48716903 Pb
   0.33333333    0.66666667    0.98478587 Pb
   0.33333333    0.66666667    0.49963017 Pb
   0.89581404    0.56266501    0.74030972 Pb
   0.43733499    0.33314903    0.74030972 Pb
   0.66685097    0.10418596    0.74030972 Pb
   0.41200195    0.08080878    0.23634671 Pb
   0.91919122    0.33119318    0.23634671 Pb
   0.66880682    0.58799805    0.23634671 Pb
   0.76299444    0.71639761    0.58244773 O
   0.28360239    0.04659683    0.58244773 O
   0.95340317    0.23700556    0.58244773 O
   0.58862410    0.00095674    0.08374105 O
   0.99904326    0.58766736    0.08374105 O
   0.41233264    0.41137590    0.08374105 O
   0.58817161    0.97238441    0.41879047 O
   0.02761559    0.61578720    0.41879047 O
   0.38421280    0.41182839    0.41879047 O
   0.71099743    0.62888537    0.90596963 O
   0.37111463    0.08211206    0.90596963 O
   0.91788794    0.28900257    0.90596963 O
   0.52513986    0.69862388    0.74398670 O
   0.30137612    0.82651598    0.74398670 O
   0.17348402    0.47486014    0.74398670 O
   0.83325364    0.02158815    0.23493237 O
   0.97841185    0.81166549    0.23493237 O
   0.18833451    0.16674636    0.23493237 O
   0.79951052    0.91454126    0.82889040 O
   0.08545874    0.88496926    0.82889040 O
   0.11503074    0.20048948    0.82889040 O
   0.57512138    0.75827957    0.22030466 O
   0.24172043    0.81684181    0.22030466 O
   0.18315819    0.42487862    0.22030466 O
   0.66666667    0.33333333    0.68298363 O
