Cu1 P6 H2 Pb9 O26
1.0
   5.00148809   -8.66283149    0.00000000
   5.00148809    8.66283149    0.00000000
   0.00000000    0.00000000    7.43466376
Cu P H Pb O
1 6 2 9 26
direct
   0.33333333    0.66666667    0.43911257 Cu
   0.03732353    0.40165588    0.26233858 P
   0.59834412    0.63566765    0.26233858 P
   0.36433235    0.96267647    0.26233858 P
   0.63047495    0.02883948    0.74295243 P
   0.39836452    0.36952505    0.74295243 P
   0.97116052    0.60163548    0.74295243 P
   0.00000000    0.00000000    0.36598077 H
   0.00000000    0.00000000    0.93471767 H
   0.25792444    0.25967672    0.24964598 Pb
   0.00175227    0.74207556    0.24964598 Pb
   0.74032328    0.99824773    0.24964598 Pb
   0.66666667    0.33333333    0.48654143 Pb
   0.24926728    0.99713360    0.74326120 Pb
   0.00286640    0.25213367    0.74326120 Pb
   0.74786633    0.75073272    0.74326120 Pb
   0.33333333    0.66666667    0.95902041 Pb
   0.66666667    0.33333333    0.98671984 Pb
   0.10696381    0.38018615    0.08440428 O
   0.61981385    0.72677766    0.08440428 O
   0.27322234    0.89303619    0.08440428 O
   0.42279794    0.55178886    0.31969093 O
   0.12899092    0.57720206    0.31969093 O
   0.44821114    0.87100908    0.31969093 O
   0.48946423    0.13471444    0.24132070 O
   0.86528556    0.35474979    0.24132070 O
   0.64525021    0.51053577    0.24132070 O
   0.00000000    0.00000000    0.23443799 O
   0.06084180    0.30308325    0.40792971 O
   0.69691675    0.75775854    0.40792971 O
   0.24224146    0.93915820    0.40792971 O
   0.74894861    0.07842801    0.58431825 O
   0.32947940    0.25105139    0.58431825 O
   0.92157199    0.67052060    0.58431825 O
   0.54007663    0.11974094    0.72446216 O
   0.88025906    0.42033569    0.72446216 O
   0.57966431    0.45992337    0.72446216 O
   0.33480196    0.48229020    0.74101867 O
   0.14748824    0.66519804    0.74101867 O
   0.51770980    0.85251176    0.74101867 O
   0.00000000    0.00000000    0.80281321 O
   0.72770506    0.08765151    0.91960622 O
   0.35994645    0.27229494    0.91960622 O
   0.91234849    0.64005355    0.91960622 O
